127 134246
1 7 120 10 3 90 116 60 59 62 61 91 64 58 100 56 5 52 124 55 66 113 65 99 92 89 125 104 96 119 63 75 76 77 18 19 23 24 22 4 20 108 6 114 105 106 15 14 36 41 30 12 17 21 72 73 74 68 70 69 109 87 88 86 85 110 71 67 8 9 11 115 13 50 2 51 121 57 54 45 44 103 93 127 107 111 112 94 46 118 49 47 53 48 95 123 97 98 101 102 83 82 126 81 84 117 78 79 80 31 27 26 33 28 122 29 32 25 38 42 39 34 43 40 35 37 16 
